
;this file is automatically generated: Thu Jan 02 16:54:47 GMT 2020

;declarations generated

(declare-fun oclExcludes ( Int Int) Bool)
(declare-fun Cardinality ( Int) Int)
(declare-fun class33_Class33IntAttr0 ( Int) Int)
(declare-fun oclSelect ( Int Bool) Int)
(declare-fun type_6b2431a6_859f_4087_9525_2fae048e31f3_Class33 ( Int) Bool)
(declare-fun Enum0 ( Int) Int)
(declare-fun Enum1 ( Int) Int)
(declare-fun Enum2 ( Int) Int)
(declare-fun container_ ( Int) Int)
(declare-fun oclIncludes ( Int Int) Bool)
(declare-fun ObjAt ( Int Int) Int)
(declare-fun obj_7eb914f5_2c62_4e66_b565_7b4a5bf06e72 ( Int) Int)

;formula(s) generated
(assert (! (exists ((c1 Int)) (and ( type_6b2431a6_859f_4087_9525_2fae048e31f3_Class33 c1 )  (< ( class33_Class33IntAttr0 ( obj_7eb914f5_2c62_4e66_b565_7b4a5bf06e72 c1 )  )  5))):named l0))
(assert (exists ((o Int)) ( type_6b2431a6_859f_4087_9525_2fae048e31f3_Class33 ( obj_7eb914f5_2c62_4e66_b565_7b4a5bf06e72 o )  ) ))

 ;end of formula 